(set-option :produce-models true)
(set-logic QF_LRA)
(set-info :notes | Strip-packing problem.|)
(declare-fun x0 () Real)
(declare-fun y0 () Real)
(declare-fun x1 () Real)
(declare-fun y1 () Real)
(declare-fun x2 () Real)
(declare-fun y2 () Real)
(declare-fun x3 () Real)
(declare-fun y3 () Real)
(declare-fun x4 () Real)
(declare-fun y4 () Real)
(declare-fun x5 () Real)
(declare-fun y5 () Real)
(declare-fun x6 () Real)
(declare-fun y6 () Real)
(declare-fun x7 () Real)
(declare-fun y7 () Real)
(declare-fun x8 () Real)
(declare-fun y8 () Real)
(declare-fun x9 () Real)
(declare-fun y9 () Real)
(declare-fun x10 () Real)
(declare-fun y10 () Real)
(declare-fun x11 () Real)
(declare-fun y11 () Real)
(declare-fun z () Real)
(declare-fun c () Real)
(assert (and (= c z) (and (>= x0 0) 
(and (>= y0 0) 
(and (>= x1 0) 
(and (>= y1 0) 
(and (>= x2 0) 
(and (>= y2 0) 
(and (>= x3 0) 
(and (>= y3 0) 
(and (>= x4 0) 
(and (>= y4 0) 
(and (>= x5 0) 
(and (>= y5 0) 
(and (>= x6 0) 
(and (>= y6 0) 
(and (>= x7 0) 
(and (>= y7 0) 
(and (>= x8 0) 
(and (>= y8 0) 
(and (>= x9 0) 
(and (>= y9 0) 
(and (>= x10 0) 
(and (>= y10 0) 
(and (>= x11 0) 
(and (>= y11 0) 
(and (>= z 0) 
(and (>= c 0) 
(and (<= (+ x0 0.9640756706) z) 
(and (<= 0.9725551429 y0) 
(and (<= y0 1.0) 
(and (<= x0 (- 4.3667767202 0.9640756706)) 
(and (>= x0 0) 
(and (<= (+ x1 0.9434486323) z) 
(and (<= 0.9151280048 y1) 
(and (<= y1 1.0) 
(and (<= x1 (- 4.3667767202 0.9434486323)) 
(and (>= x1 0) 
(and (<= (+ x2 0.4187959829) z) 
(and (<= 0.8416171297 y2) 
(and (<= y2 1.0) 
(and (<= x2 (- 4.3667767202 0.4187959829)) 
(and (>= x2 0) 
(and (<= (+ x3 0.5551458113) z) 
(and (<= 0.7317592584 y3) 
(and (<= y3 1.0) 
(and (<= x3 (- 4.3667767202 0.5551458113)) 
(and (>= x3 0) 
(and (<= (+ x4 0.3302695986) z) 
(and (<= 0.6918635424 y4) 
(and (<= y4 1.0) 
(and (<= x4 (- 4.3667767202 0.3302695986)) 
(and (>= x4 0) 
(and (<= (+ x5 0.5351061379) z) 
(and (<= 0.6815348721 y5) 
(and (<= y5 1.0) 
(and (<= x5 (- 4.3667767202 0.5351061379)) 
(and (>= x5 0) 
(and (<= (+ x6 0.5693303597) z) 
(and (<= 0.6064681798 y6) 
(and (<= y6 1.0) 
(and (<= x6 (- 4.3667767202 0.5693303597)) 
(and (>= x6 0) 
(and (<= (+ x7 0.0506045269) z) 
(and (<= 0.4558229526 y7) 
(and (<= y7 1.0) 
(and (<= x7 (- 4.3667767202 0.0506045269)) 
(and (>= x7 0) 
(and (<= (+ x8 0.3940558343) z) 
(and (<= 0.3931982664 y8) 
(and (<= y8 1.0) 
(and (<= x8 (- 4.3667767202 0.3940558343)) 
(and (>= x8 0) 
(and (<= (+ x9 0.1645011219) z) 
(and (<= 0.2640300109 y9) 
(and (<= y9 1.0) 
(and (<= x9 (- 4.3667767202 0.1645011219)) 
(and (>= x9 0) 
(and (<= (+ x10 0.0439657281) z) 
(and (<= 0.0521725129 y10) 
(and (<= y10 1.0) 
(and (<= x10 (- 4.3667767202 0.0439657281)) 
(and (>= x10 0) 
(and (<= (+ x11 0.2769879188) z) 
(and (<= 0.0051804371 y11) 
(and (<= y11 1.0) 
(and (<= x11 (- 4.3667767202 0.2769879188)) 
(and (>= x11 0) 
(and (<= c 4.3667767202) 
(and (or (<= (+ x0 0.9640756706) x1) (or (<= (+ x1 0.9434486323) x0) (or (>= (- y0 0.9725551429) y1) (or (>= (- y1 0.9151280048) y0))))) 
(and (or (<= (+ x0 0.9640756706) x2) (or (<= (+ x2 0.4187959829) x0) (or (>= (- y0 0.9725551429) y2) (or (>= (- y2 0.8416171297) y0))))) 
(and (or (<= (+ x0 0.9640756706) x3) (or (<= (+ x3 0.5551458113) x0) (or (>= (- y0 0.9725551429) y3) (or (>= (- y3 0.7317592584) y0))))) 
(and (or (<= (+ x0 0.9640756706) x4) (or (<= (+ x4 0.3302695986) x0) (or (>= (- y0 0.9725551429) y4) (or (>= (- y4 0.6918635424) y0))))) 
(and (or (<= (+ x0 0.9640756706) x5) (or (<= (+ x5 0.5351061379) x0) (or (>= (- y0 0.9725551429) y5) (or (>= (- y5 0.6815348721) y0))))) 
(and (or (<= (+ x0 0.9640756706) x6) (or (<= (+ x6 0.5693303597) x0) (or (>= (- y0 0.9725551429) y6) (or (>= (- y6 0.6064681798) y0))))) 
(and (or (<= (+ x0 0.9640756706) x7) (or (<= (+ x7 0.0506045269) x0) (or (>= (- y0 0.9725551429) y7) (or (>= (- y7 0.4558229526) y0))))) 
(and (or (<= (+ x0 0.9640756706) x8) (or (<= (+ x8 0.3940558343) x0) (or (>= (- y0 0.9725551429) y8) (or (>= (- y8 0.3931982664) y0))))) 
(and (or (<= (+ x0 0.9640756706) x9) (or (<= (+ x9 0.1645011219) x0) (or (>= (- y0 0.9725551429) y9) (or (>= (- y9 0.2640300109) y0))))) 
(and (or (<= (+ x0 0.9640756706) x10) (or (<= (+ x10 0.0439657281) x0) (or (>= (- y0 0.9725551429) y10) (or (>= (- y10 0.0521725129) y0))))) 
(and (or (<= (+ x0 0.9640756706) x11) (or (<= (+ x11 0.2769879188) x0) (or (>= (- y0 0.9725551429) y11) (or (>= (- y11 0.0051804371) y0))))) 
(and (or (<= (+ x1 0.9434486323) x2) (or (<= (+ x2 0.4187959829) x1) (or (>= (- y1 0.9151280048) y2) (or (>= (- y2 0.8416171297) y1))))) 
(and (or (<= (+ x1 0.9434486323) x3) (or (<= (+ x3 0.5551458113) x1) (or (>= (- y1 0.9151280048) y3) (or (>= (- y3 0.7317592584) y1))))) 
(and (or (<= (+ x1 0.9434486323) x4) (or (<= (+ x4 0.3302695986) x1) (or (>= (- y1 0.9151280048) y4) (or (>= (- y4 0.6918635424) y1))))) 
(and (or (<= (+ x1 0.9434486323) x5) (or (<= (+ x5 0.5351061379) x1) (or (>= (- y1 0.9151280048) y5) (or (>= (- y5 0.6815348721) y1))))) 
(and (or (<= (+ x1 0.9434486323) x6) (or (<= (+ x6 0.5693303597) x1) (or (>= (- y1 0.9151280048) y6) (or (>= (- y6 0.6064681798) y1))))) 
(and (or (<= (+ x1 0.9434486323) x7) (or (<= (+ x7 0.0506045269) x1) (or (>= (- y1 0.9151280048) y7) (or (>= (- y7 0.4558229526) y1))))) 
(and (or (<= (+ x1 0.9434486323) x8) (or (<= (+ x8 0.3940558343) x1) (or (>= (- y1 0.9151280048) y8) (or (>= (- y8 0.3931982664) y1))))) 
(and (or (<= (+ x1 0.9434486323) x9) (or (<= (+ x9 0.1645011219) x1) (or (>= (- y1 0.9151280048) y9) (or (>= (- y9 0.2640300109) y1))))) 
(and (or (<= (+ x1 0.9434486323) x10) (or (<= (+ x10 0.0439657281) x1) (or (>= (- y1 0.9151280048) y10) (or (>= (- y10 0.0521725129) y1))))) 
(and (or (<= (+ x1 0.9434486323) x11) (or (<= (+ x11 0.2769879188) x1) (or (>= (- y1 0.9151280048) y11) (or (>= (- y11 0.0051804371) y1))))) 
(and (or (<= (+ x2 0.4187959829) x3) (or (<= (+ x3 0.5551458113) x2) (or (>= (- y2 0.8416171297) y3) (or (>= (- y3 0.7317592584) y2))))) 
(and (or (<= (+ x2 0.4187959829) x4) (or (<= (+ x4 0.3302695986) x2) (or (>= (- y2 0.8416171297) y4) (or (>= (- y4 0.6918635424) y2))))) 
(and (or (<= (+ x2 0.4187959829) x5) (or (<= (+ x5 0.5351061379) x2) (or (>= (- y2 0.8416171297) y5) (or (>= (- y5 0.6815348721) y2))))) 
(and (or (<= (+ x2 0.4187959829) x6) (or (<= (+ x6 0.5693303597) x2) (or (>= (- y2 0.8416171297) y6) (or (>= (- y6 0.6064681798) y2))))) 
(and (or (<= (+ x2 0.4187959829) x7) (or (<= (+ x7 0.0506045269) x2) (or (>= (- y2 0.8416171297) y7) (or (>= (- y7 0.4558229526) y2))))) 
(and (or (<= (+ x2 0.4187959829) x8) (or (<= (+ x8 0.3940558343) x2) (or (>= (- y2 0.8416171297) y8) (or (>= (- y8 0.3931982664) y2))))) 
(and (or (<= (+ x2 0.4187959829) x9) (or (<= (+ x9 0.1645011219) x2) (or (>= (- y2 0.8416171297) y9) (or (>= (- y9 0.2640300109) y2))))) 
(and (or (<= (+ x2 0.4187959829) x10) (or (<= (+ x10 0.0439657281) x2) (or (>= (- y2 0.8416171297) y10) (or (>= (- y10 0.0521725129) y2))))) 
(and (or (<= (+ x2 0.4187959829) x11) (or (<= (+ x11 0.2769879188) x2) (or (>= (- y2 0.8416171297) y11) (or (>= (- y11 0.0051804371) y2))))) 
(and (or (<= (+ x3 0.5551458113) x4) (or (<= (+ x4 0.3302695986) x3) (or (>= (- y3 0.7317592584) y4) (or (>= (- y4 0.6918635424) y3))))) 
(and (or (<= (+ x3 0.5551458113) x5) (or (<= (+ x5 0.5351061379) x3) (or (>= (- y3 0.7317592584) y5) (or (>= (- y5 0.6815348721) y3))))) 
(and (or (<= (+ x3 0.5551458113) x6) (or (<= (+ x6 0.5693303597) x3) (or (>= (- y3 0.7317592584) y6) (or (>= (- y6 0.6064681798) y3))))) 
(and (or (<= (+ x3 0.5551458113) x7) (or (<= (+ x7 0.0506045269) x3) (or (>= (- y3 0.7317592584) y7) (or (>= (- y7 0.4558229526) y3))))) 
(and (or (<= (+ x3 0.5551458113) x8) (or (<= (+ x8 0.3940558343) x3) (or (>= (- y3 0.7317592584) y8) (or (>= (- y8 0.3931982664) y3))))) 
(and (or (<= (+ x3 0.5551458113) x9) (or (<= (+ x9 0.1645011219) x3) (or (>= (- y3 0.7317592584) y9) (or (>= (- y9 0.2640300109) y3))))) 
(and (or (<= (+ x3 0.5551458113) x10) (or (<= (+ x10 0.0439657281) x3) (or (>= (- y3 0.7317592584) y10) (or (>= (- y10 0.0521725129) y3))))) 
(and (or (<= (+ x3 0.5551458113) x11) (or (<= (+ x11 0.2769879188) x3) (or (>= (- y3 0.7317592584) y11) (or (>= (- y11 0.0051804371) y3))))) 
(and (or (<= (+ x4 0.3302695986) x5) (or (<= (+ x5 0.5351061379) x4) (or (>= (- y4 0.6918635424) y5) (or (>= (- y5 0.6815348721) y4))))) 
(and (or (<= (+ x4 0.3302695986) x6) (or (<= (+ x6 0.5693303597) x4) (or (>= (- y4 0.6918635424) y6) (or (>= (- y6 0.6064681798) y4))))) 
(and (or (<= (+ x4 0.3302695986) x7) (or (<= (+ x7 0.0506045269) x4) (or (>= (- y4 0.6918635424) y7) (or (>= (- y7 0.4558229526) y4))))) 
(and (or (<= (+ x4 0.3302695986) x8) (or (<= (+ x8 0.3940558343) x4) (or (>= (- y4 0.6918635424) y8) (or (>= (- y8 0.3931982664) y4))))) 
(and (or (<= (+ x4 0.3302695986) x9) (or (<= (+ x9 0.1645011219) x4) (or (>= (- y4 0.6918635424) y9) (or (>= (- y9 0.2640300109) y4))))) 
(and (or (<= (+ x4 0.3302695986) x10) (or (<= (+ x10 0.0439657281) x4) (or (>= (- y4 0.6918635424) y10) (or (>= (- y10 0.0521725129) y4))))) 
(and (or (<= (+ x4 0.3302695986) x11) (or (<= (+ x11 0.2769879188) x4) (or (>= (- y4 0.6918635424) y11) (or (>= (- y11 0.0051804371) y4))))) 
(and (or (<= (+ x5 0.5351061379) x6) (or (<= (+ x6 0.5693303597) x5) (or (>= (- y5 0.6815348721) y6) (or (>= (- y6 0.6064681798) y5))))) 
(and (or (<= (+ x5 0.5351061379) x7) (or (<= (+ x7 0.0506045269) x5) (or (>= (- y5 0.6815348721) y7) (or (>= (- y7 0.4558229526) y5))))) 
(and (or (<= (+ x5 0.5351061379) x8) (or (<= (+ x8 0.3940558343) x5) (or (>= (- y5 0.6815348721) y8) (or (>= (- y8 0.3931982664) y5))))) 
(and (or (<= (+ x5 0.5351061379) x9) (or (<= (+ x9 0.1645011219) x5) (or (>= (- y5 0.6815348721) y9) (or (>= (- y9 0.2640300109) y5))))) 
(and (or (<= (+ x5 0.5351061379) x10) (or (<= (+ x10 0.0439657281) x5) (or (>= (- y5 0.6815348721) y10) (or (>= (- y10 0.0521725129) y5))))) 
(and (or (<= (+ x5 0.5351061379) x11) (or (<= (+ x11 0.2769879188) x5) (or (>= (- y5 0.6815348721) y11) (or (>= (- y11 0.0051804371) y5))))) 
(and (or (<= (+ x6 0.5693303597) x7) (or (<= (+ x7 0.0506045269) x6) (or (>= (- y6 0.6064681798) y7) (or (>= (- y7 0.4558229526) y6))))) 
(and (or (<= (+ x6 0.5693303597) x8) (or (<= (+ x8 0.3940558343) x6) (or (>= (- y6 0.6064681798) y8) (or (>= (- y8 0.3931982664) y6))))) 
(and (or (<= (+ x6 0.5693303597) x9) (or (<= (+ x9 0.1645011219) x6) (or (>= (- y6 0.6064681798) y9) (or (>= (- y9 0.2640300109) y6))))) 
(and (or (<= (+ x6 0.5693303597) x10) (or (<= (+ x10 0.0439657281) x6) (or (>= (- y6 0.6064681798) y10) (or (>= (- y10 0.0521725129) y6))))) 
(and (or (<= (+ x6 0.5693303597) x11) (or (<= (+ x11 0.2769879188) x6) (or (>= (- y6 0.6064681798) y11) (or (>= (- y11 0.0051804371) y6))))) 
(and (or (<= (+ x7 0.0506045269) x8) (or (<= (+ x8 0.3940558343) x7) (or (>= (- y7 0.4558229526) y8) (or (>= (- y8 0.3931982664) y7))))) 
(and (or (<= (+ x7 0.0506045269) x9) (or (<= (+ x9 0.1645011219) x7) (or (>= (- y7 0.4558229526) y9) (or (>= (- y9 0.2640300109) y7))))) 
(and (or (<= (+ x7 0.0506045269) x10) (or (<= (+ x10 0.0439657281) x7) (or (>= (- y7 0.4558229526) y10) (or (>= (- y10 0.0521725129) y7))))) 
(and (or (<= (+ x7 0.0506045269) x11) (or (<= (+ x11 0.2769879188) x7) (or (>= (- y7 0.4558229526) y11) (or (>= (- y11 0.0051804371) y7))))) 
(and (or (<= (+ x8 0.3940558343) x9) (or (<= (+ x9 0.1645011219) x8) (or (>= (- y8 0.3931982664) y9) (or (>= (- y9 0.2640300109) y8))))) 
(and (or (<= (+ x8 0.3940558343) x10) (or (<= (+ x10 0.0439657281) x8) (or (>= (- y8 0.3931982664) y10) (or (>= (- y10 0.0521725129) y8))))) 
(and (or (<= (+ x8 0.3940558343) x11) (or (<= (+ x11 0.2769879188) x8) (or (>= (- y8 0.3931982664) y11) (or (>= (- y11 0.0051804371) y8))))) 
(and (or (<= (+ x9 0.1645011219) x10) (or (<= (+ x10 0.0439657281) x9) (or (>= (- y9 0.2640300109) y10) (or (>= (- y10 0.0521725129) y9))))) 
(and (or (<= (+ x9 0.1645011219) x11) (or (<= (+ x11 0.2769879188) x9) (or (>= (- y9 0.2640300109) y11) (or (>= (- y11 0.0051804371) y9))))) 
(and (or (<= (+ x10 0.0439657281) x11) (or (<= (+ x11 0.2769879188) x10) (or (>= (- y10 0.0521725129) y11) (or (>= (- y11 0.0051804371) y10))))) )))))))))))))))))))))))))))))))))))))))))))))))))))))))))))))))))))))))))))))))))))))))))))))))))))))))))))))))))))))))))))))))))))))))))))))))))))))))))))
(minimize c)
(check-sat)
(get-objectives)
(exit)
